102     4       
10      10      10      10      
0       0       0       0       0       11      2       3       5       6       7       8       9       10      11      13      15      
6       3       6       0       0       4       4       26      28      31      
9       6       0       0       4       7       12      14      21      22      27      28      32      
4       0       0       5       6       6       14      18      19      22      24      29      
6       0       0       8       10      6       18      19      23      24      27      43      
8       0       3       0       10      5       14      21      24      28      32      
2       0       10      10      0       5       14      23      26      28      32      
8       7       0       10      0       4       12      20      22      28      
5       10      10      2       0       7       16      17      24      28      31      36      43      
1       10      0       10      0       7       18      25      28      29      31      36      43      
10      5       0       0       10      4       17      23      26      43      
9       10      0       5       0       5       17      24      26      31      33      
2       0       10      0       10      8       25      28      30      33      34      36      37      43      
8       0       0       8       10      5       17      33      36      37      43      
5       0       0       8       10      6       28      29      31      34      36      43      
7       10      10      0       0       6       25      33      35      37      42      45      
2       10      10      0       0       5       25      30      34      35      46      
9       0       9       0       10      5       30      33      34      35      37      
1       10      7       0       0       5       25      32      34      36      37      
3       4       1       0       0       5       25      33      37      42      45      
10      6       0       0       9       5       25      31      42      45      46      
8       10      0       8       0       5       33      34      35      40      47      
9       6       0       10      0       4       31      33      37      40      
9       0       0       2       9       8       37      38      39      40      41      45      47      50      
3       10      0       5       0       8       38      39      40      41      44      47      48      50      
10      0       10      0       5       7       36      38      39      40      46      48      50      
4       0       9       0       10      9       38      40      44      45      47      48      49      50      52      
7       0       0       5       5       7       35      39      40      42      44      48      50      
4       5       6       0       0       6       37      39      40      46      50      55      
2       0       10      8       0       7       39      40      42      47      49      50      55      
5       5       0       10      0       6       38      39      44      47      48      49      
5       6       0       9       0       6       39      42      44      48      49      54      
10      0       0       10      5       5       38      46      48      49      50      
1       0       9       8       1       6       42      45      49      50      54      55      
1       0       0       10      10      6       41      52      53      54      57      62      
5       0       0       8       9       4       42      49      54      57      
6       7       0       0       9       5       48      49      51      54      56      
2       0       10      1       10      8       51      53      55      56      58      59      61      62      
3       10      7       0       0       7       51      52      53      57      58      61      62      
5       0       3       0       5       6       53      54      56      59      61      64      
2       0       10      0       10      5       49      51      56      58      59      
1       8       0       0       5       6       52      53      56      60      62      64      
7       10      0       8       0       4       47      59      60      70      
6       10      7       0       0       5       51      57      58      61      69      
2       10      10      0       0       4       51      56      58      59      
4       10      10      0       0       5       52      53      60      62      65      
2       0       10      9       0       6       57      58      61      64      65      69      
6       10      8       0       0       5       57      59      60      65      70      
7       0       10      10      0       5       60      61      64      69      70      
6       10      7       0       0       4       56      59      70      73      
2       10      10      0       1       5       60      63      64      65      70      
2       3       0       9       1       5       59      70      71      73      76      
10      10      0       10      0       6       63      67      69      70      73      76      
1       0       0       4       9       3       58      60      70      
2       10      7       0       0       7       66      67      69      71      73      74      76      
4       0       10      10      0       5       65      67      69      74      76      
3       10      10      0       0       5       63      67      71      74      76      
7       7       0       0       8       4       63      67      73      74      
8       10      8       0       0       3       63      67      74      
7       0       10      10      0       5       67      72      73      74      84      
6       0       10      0       10      3       63      71      89      
5       0       10      0       10      5       71      74      75      83      84      
4       0       10      10      0       2       66      68      
8       0       10      6       0       4       71      75      83      89      
9       10      10      0       0       2       66      80      
4       10      10      0       4       5       72      75      78      84      85      
6       0       0       10      6       1       68      
6       0       10      10      0       7       75      77      78      79      80      85      92      
4       0       2       10      0       8       77      79      83      85      86      89      92      101     
7       0       8       0       10      7       74      81      83      84      87      91      92      
10      0       10      10      0       7       77      78      79      80      85      92      101     
5       0       0       10      10      4       77      83      87      92      
3       10      0       10      0       5       77      92      98      99      101     
2       0       10      7       0       8       82      85      86      89      90      99      100     101     
6       0       8       0       7       6       81      86      88      90      91      101     
3       0       0       10      3       6       82      90      91      98      100     101     
7       0       10      10      0       5       81      88      90      91      100     
1       0       0       8       10      7       93      94      95      96      97      99      100     
10      10      6       0       0       3       87      88      98      
10      0       10      9       0       4       88      96      98      99      
3       0       4       10      0       1       82      
10      10      10      0       0       5       93      94      95      96      97      
10      0       0       6       10      5       93      94      96      98      99      
10      10      6       0       0       3       88      93      96      
1       0       10      6       0       4       93      94      95      98      
8       10      0       10      0       4       93      94      95      96      
3       0       10      0       9       3       93      95      97      
5       0       0       3       9       2       94      95      
4       0       10      0       7       2       93      94      
3       10      0       1       10      1       93      
1       0       10      9       0       1       93      
1       10      0       7       0       1       93      
3       0       0       9       0       1       102     
10      6       0       4       0       1       102     
9       10      10      0       0       1       102     
6       6       10      0       0       1       102     
2       10      10      0       0       1       102     
2       0       0       6       10      1       102     
9       6       0       6       0       1       102     
1       4       0       4       0       1       102     
8       10      6       0       0       1       102     
0       0       0       0       0       0       
